N = 11;
H = 6;
T = 2;

avail = array3d(1..N, 1..H, 1..T, [4, 2, 5, 7, 0, 0, 6, 0, 2, 4, 5, 4, 7, 2, 4, 9, 5, 7, 0, 7, 10, 10, 2, 0, 3, 2, 8, 5, 8, 1, 5, 5, 4, 6, 10, 2, 2, 0, 7, 9, 3, 4, 2, 6, 5, 0, 0, 0, 10, 9, 3, 2, 9, 10, 9, 9, 2, 7, 5, 5, 2, 4, 10, 7, 9, 3, 2, 5, 10, 3, 6, 1, 9, 10, 7, 2, 7, 10, 3, 9, 8, 9, 4, 3, 7, 7, 2, 3, 4, 2, 9, 10, 2, 9, 5, 4, 1, 0, 6, 2, 2, 0, 10, 10, 4, 0, 7, 1, 10, 6, 5, 9, 6, 1, 2, 10, 1, 8, 9, 0, 7, 7, 2, 5, 2, 6, 9, 6, 6, 9, 10, 7]);

r = array2d(1..H, 1..T, [4, 0, 5, 4, 2, 3, 3, 2, 4, 2, 2, 2]);
